Cr Co Ni
 1.0000000000000000
    10.5839999999999996   10.5839999999999996    0.0000000000000000
     0.0000000000000000   10.5839999999999996   10.5839999999999996
    10.5839999999999996    0.0000000000000000   10.5839999999999996
 Cr  Co  Ni 
  71  72  72
Cartesian
  0.0000000000000000  0.0000000000000000  0.0000000000000000
 14.1120000000000001  8.8200000000000003  8.8200000000000003
 15.8759999999999994 10.5839999999999996  8.8200000000000003
 15.8759999999999994 12.3480000000000008 10.5839999999999996
 10.5839999999999996 15.8759999999999994  8.8200000000000003
  8.8200000000000003  7.0560000000000000 12.3480000000000008
  7.0560000000000000 12.3480000000000008  8.8200000000000003
 12.3480000000000008 10.5839999999999996 12.3480000000000008
 15.8759999999999994 14.1120000000000001 12.3480000000000008
 10.5839999999999996 14.1120000000000001  7.0560000000000000
  8.8200000000000003 12.3480000000000008  7.0560000000000000
  8.8200000000000003  8.8200000000000003 14.1120000000000001
  7.0560000000000000  8.8200000000000003  5.2919999999999998
  5.2919999999999998  7.0560000000000000  5.2919999999999998
 10.5839999999999996 12.3480000000000008 15.8759999999999994
  1.7640000000000000  3.5280000000000000  5.2919999999999998
 12.3480000000000008 14.1120000000000001 15.8759999999999994
  7.0560000000000000  7.0560000000000000  3.5280000000000000
  7.0560000000000000  3.5280000000000000  3.5280000000000000
  5.2919999999999998  5.2919999999999998  3.5280000000000000
 10.5839999999999996  7.0560000000000000  3.5280000000000000
  7.0560000000000000  5.2919999999999998  5.2919999999999998
  8.8200000000000003  5.2919999999999998  7.0560000000000000
 10.5839999999999996 15.8759999999999994 12.3480000000000008
  8.8200000000000003 14.1120000000000001 12.3480000000000008
 10.5839999999999996  8.8200000000000003  8.8200000000000003
  7.0560000000000000  7.0560000000000000 10.5839999999999996
 12.3480000000000008 12.3480000000000008 10.5839999999999996
 10.5839999999999996 12.3480000000000008 12.3480000000000008
  3.5280000000000000  7.0560000000000000 10.5839999999999996
 12.3480000000000008 14.1120000000000001 12.3480000000000008
  8.8200000000000003 10.5839999999999996  8.8200000000000003
  8.8200000000000003 12.3480000000000008 14.1120000000000001
 10.5839999999999996 14.1120000000000001 14.1120000000000001
 12.3480000000000008 12.3480000000000008  7.0560000000000000
  7.0560000000000000  0.0000000000000000  7.0560000000000000
  8.8200000000000003  1.7640000000000000  7.0560000000000000
  5.2919999999999998  5.2919999999999998  7.0560000000000000
 10.5839999999999996  8.8200000000000003  5.2919999999999998
 15.8759999999999994  8.8200000000000003  7.0560000000000000
 12.3480000000000008  3.5280000000000000  8.8200000000000003
  5.2919999999999998  8.8200000000000003  7.0560000000000000
 12.3480000000000008  7.0560000000000000  5.2919999999999998
  1.7640000000000000  8.8200000000000003  7.0560000000000000
 17.6400000000000006 15.8759999999999994 15.8759999999999994
  0.0000000000000000  7.0560000000000000  7.0560000000000000
  5.2919999999999998  7.0560000000000000  1.7640000000000000
  7.0560000000000000  8.8200000000000003  1.7640000000000000
  8.8200000000000003 14.1120000000000001  5.2919999999999998
 17.6400000000000006 12.3480000000000008 12.3480000000000008
  5.2919999999999998 10.5839999999999996  5.2919999999999998
 14.1120000000000001 12.3480000000000008 15.8759999999999994
  3.5280000000000000  8.8200000000000003  5.2919999999999998
 12.3480000000000008 10.5839999999999996 15.8759999999999994
 10.5839999999999996  7.0560000000000000 14.1120000000000001
  8.8200000000000003  7.0560000000000000 15.8759999999999994
  8.8200000000000003 12.3480000000000008  3.5280000000000000
 15.8759999999999994 12.3480000000000008 14.1120000000000001
  7.0560000000000000 14.1120000000000001  7.0560000000000000
 14.1120000000000001 10.5839999999999996 14.1120000000000001
  0.0000000000000000  8.8200000000000003  8.8200000000000003
  8.8200000000000003  8.8200000000000003  0.0000000000000000
  3.5280000000000000 12.3480000000000008  8.8200000000000003
  7.0560000000000000  5.2919999999999998  1.7640000000000000
  5.2919999999999998  3.5280000000000000  1.7640000000000000
  1.7640000000000000  1.7640000000000000  0.0000000000000000
  5.2919999999999998  5.2919999999999998  0.0000000000000000
  3.5280000000000000  3.5280000000000000  0.0000000000000000
 12.3480000000000008  7.0560000000000000 12.3480000000000008
  3.5280000000000000  1.7640000000000000  1.7640000000000000
  8.8200000000000003  1.7640000000000000 10.5839999999999996
 17.6400000000000006 14.1120000000000001 14.1120000000000001
  7.0560000000000000  3.5280000000000000  7.0560000000000000
 14.1120000000000001 17.6400000000000006 14.1120000000000001
 12.3480000000000008 15.8759999999999994 14.1120000000000001
 12.3480000000000008  8.8200000000000003  7.0560000000000000
  5.2919999999999998  8.8200000000000003 14.1120000000000001
 14.1120000000000001 10.5839999999999996  7.0560000000000000
 15.8759999999999994 14.1120000000000001 15.8759999999999994
 10.5839999999999996 10.5839999999999996 17.6400000000000006
 12.3480000000000008 10.5839999999999996  8.8200000000000003
 14.1120000000000001 12.3480000000000008  8.8200000000000003
 10.5839999999999996 10.5839999999999996 10.5839999999999996
 10.5839999999999996  7.0560000000000000  7.0560000000000000
  8.8200000000000003  8.8200000000000003 17.6400000000000006
 14.1120000000000001  5.2919999999999998  8.8200000000000003
 12.3480000000000008  5.2919999999999998  7.0560000000000000
 17.6400000000000006  8.8200000000000003  8.8200000000000003
 10.5839999999999996  1.7640000000000000  8.8200000000000003
 10.5839999999999996  3.5280000000000000 10.5839999999999996
 12.3480000000000008  5.2919999999999998 10.5839999999999996
 15.8759999999999994  8.8200000000000003 10.5839999999999996
 14.1120000000000001 14.1120000000000001 14.1120000000000001
 12.3480000000000008 12.3480000000000008 14.1120000000000001
 10.5839999999999996 10.5839999999999996 14.1120000000000001
 14.1120000000000001  8.8200000000000003  5.2919999999999998
  7.0560000000000000  7.0560000000000000 14.1120000000000001
  8.8200000000000003  3.5280000000000000 12.3480000000000008
 10.5839999999999996  8.8200000000000003 12.3480000000000008
 14.1120000000000001  8.8200000000000003 12.3480000000000008
  7.0560000000000000  5.2919999999999998 12.3480000000000008
 14.1120000000000001 10.5839999999999996 10.5839999999999996
 12.3480000000000008  8.8200000000000003 10.5839999999999996
 10.5839999999999996  7.0560000000000000 10.5839999999999996
  7.0560000000000000  3.5280000000000000 10.5839999999999996
 12.3480000000000008  7.0560000000000000  8.8200000000000003
 15.8759999999999994  7.0560000000000000  8.8200000000000003
  8.8200000000000003  3.5280000000000000  8.8200000000000003
 12.3480000000000008  8.8200000000000003 14.1120000000000001
 14.1120000000000001  7.0560000000000000  7.0560000000000000
 10.5839999999999996  3.5280000000000000  7.0560000000000000
 10.5839999999999996  5.2919999999999998  8.8200000000000003
 12.3480000000000008 17.6400000000000006 12.3480000000000008
  1.7640000000000000  8.8200000000000003 10.5839999999999996
  5.2919999999999998  8.8200000000000003 10.5839999999999996
  5.2919999999999998 12.3480000000000008 10.5839999999999996
  1.7640000000000000  1.7640000000000000  3.5280000000000000
  5.2919999999999998 12.3480000000000008  7.0560000000000000
  8.8200000000000003 15.8759999999999994 10.5839999999999996
  7.0560000000000000  8.8200000000000003  8.8200000000000003
  5.2919999999999998  7.0560000000000000  8.8200000000000003
  3.5280000000000000  5.2919999999999998  8.8200000000000003
  8.8200000000000003 10.5839999999999996  5.2919999999999998
  8.8200000000000003  8.8200000000000003  7.0560000000000000
 10.5839999999999996  8.8200000000000003  1.7640000000000000
 12.3480000000000008 10.5839999999999996  5.2919999999999998
  5.2919999999999998 14.1120000000000001  8.8200000000000003
  3.5280000000000000  0.0000000000000000  3.5280000000000000
  5.2919999999999998  1.7640000000000000  3.5280000000000000
  1.7640000000000000  0.0000000000000000  1.7640000000000000
  0.0000000000000000  5.2919999999999998  5.2919999999999998
 12.3480000000000008  8.8200000000000003  3.5280000000000000
  5.2919999999999998  8.8200000000000003  3.5280000000000000
  8.8200000000000003  3.5280000000000000  5.2919999999999998
  7.0560000000000000  1.7640000000000000  5.2919999999999998
  1.7640000000000000  5.2919999999999998  7.0560000000000000
  7.0560000000000000 10.5839999999999996  7.0560000000000000
  7.0560000000000000 10.5839999999999996  3.5280000000000000
  0.0000000000000000  3.5280000000000000  3.5280000000000000
  3.5280000000000000  5.2919999999999998  1.7640000000000000
 10.5839999999999996 14.1120000000000001 10.5839999999999996
  8.8200000000000003 14.1120000000000001  8.8200000000000003
 12.3480000000000008 15.8759999999999994 10.5839999999999996
 15.8759999999999994 17.6400000000000006 15.8759999999999994
  8.8200000000000003  0.0000000000000000  8.8200000000000003
 14.1120000000000001 15.8759999999999994 15.8759999999999994
 10.5839999999999996 10.5839999999999996  3.5280000000000000
  8.8200000000000003  7.0560000000000000  1.7640000000000000
  8.8200000000000003  8.8200000000000003  3.5280000000000000
  3.5280000000000000  5.2919999999999998  5.2919999999999998
  3.5280000000000000  3.5280000000000000  3.5280000000000000
  5.2919999999999998  1.7640000000000000  7.0560000000000000
 10.5839999999999996  5.2919999999999998 12.3480000000000008
  7.0560000000000000 15.8759999999999994  8.8200000000000003
 14.1120000000000001 14.1120000000000001 17.6400000000000006
 12.3480000000000008 12.3480000000000008 17.6400000000000006
  7.0560000000000000  7.0560000000000000  0.0000000000000000
  0.0000000000000000  1.7640000000000000  1.7640000000000000
  1.7640000000000000  3.5280000000000000  1.7640000000000000
  8.8200000000000003 10.5839999999999996  1.7640000000000000
 10.5839999999999996  8.8200000000000003 15.8759999999999994
  1.7640000000000000  5.2919999999999998  3.5280000000000000
  3.5280000000000000  7.0560000000000000  3.5280000000000000
  1.7640000000000000  7.0560000000000000  5.2919999999999998
  8.8200000000000003  5.2919999999999998 14.1120000000000001
  7.0560000000000000 12.3480000000000008  5.2919999999999998
 15.8759999999999994 10.5839999999999996 12.3480000000000008
  8.8200000000000003 15.8759999999999994  7.0560000000000000
  1.7640000000000000 10.5839999999999996  8.8200000000000003
 17.6400000000000006 10.5839999999999996 10.5839999999999996
 14.1120000000000001  7.0560000000000000 10.5839999999999996
  8.8200000000000003 17.6400000000000006  8.8200000000000003
  8.8200000000000003 10.5839999999999996 15.8759999999999994
  5.2919999999999998 10.5839999999999996  8.8200000000000003
 15.8759999999999994 15.8759999999999994 14.1120000000000001
 12.3480000000000008 14.1120000000000001  8.8200000000000003
  8.8200000000000003 10.5839999999999996 12.3480000000000008
  7.0560000000000000  8.8200000000000003 12.3480000000000008
  5.2919999999999998  7.0560000000000000 12.3480000000000008
 14.1120000000000001 14.1120000000000001 10.5839999999999996
  7.0560000000000000 10.5839999999999996 10.5839999999999996
  8.8200000000000003 12.3480000000000008 10.5839999999999996
  8.8200000000000003  8.8200000000000003 10.5839999999999996
  5.2919999999999998  5.2919999999999998 10.5839999999999996
  3.5280000000000000  8.8200000000000003 12.3480000000000008
  5.2919999999999998 10.5839999999999996 12.3480000000000008
  8.8200000000000003  7.0560000000000000  8.8200000000000003
  7.0560000000000000  5.2919999999999998  8.8200000000000003
  5.2919999999999998  3.5280000000000000  8.8200000000000003
  7.0560000000000000 12.3480000000000008 12.3480000000000008
 15.8759999999999994 15.8759999999999994 17.6400000000000006
  5.2919999999999998  0.0000000000000000  5.2919999999999998
 14.1120000000000001 15.8759999999999994 12.3480000000000008
  7.0560000000000000  8.8200000000000003 15.8759999999999994
 10.5839999999999996 12.3480000000000008  8.8200000000000003
 10.5839999999999996 10.5839999999999996  7.0560000000000000
 10.5839999999999996 12.3480000000000008  5.2919999999999998
  3.5280000000000000  7.0560000000000000  7.0560000000000000
  1.7640000000000000  7.0560000000000000  8.8200000000000003
 14.1120000000000001 12.3480000000000008 12.3480000000000008
  3.5280000000000000  8.8200000000000003  8.8200000000000003
 10.5839999999999996  5.2919999999999998  5.2919999999999998
  3.5280000000000000 10.5839999999999996 10.5839999999999996
  7.0560000000000000 14.1120000000000001 10.5839999999999996
  8.8200000000000003  5.2919999999999998 10.5839999999999996
 10.5839999999999996 17.6400000000000006 10.5839999999999996
  8.8200000000000003  5.2919999999999998  3.5280000000000000
  3.5280000000000000  1.7640000000000000  5.2919999999999998
  7.0560000000000000  1.7640000000000000  8.8200000000000003
  5.2919999999999998  3.5280000000000000  5.2919999999999998
  8.8200000000000003  7.0560000000000000  5.2919999999999998
  3.5280000000000000  3.5280000000000000  7.0560000000000000
  7.0560000000000000  7.0560000000000000  7.0560000000000000
  7.0560000000000000 10.5839999999999996 14.1120000000000001
 17.6400000000000006 17.6400000000000006 17.6400000000000006
