Cr Co Ni 
 1.0000000000000000
    14.1120000000000001    0.0000000000000000    0.0000000000000000
     0.0000000000000000   14.1120000000000001    0.0000000000000000
     0.0000000000000000    0.0000000000000000   14.1120000000000001
 Cr  Co  Ni 
  92  73  90
Cartesian
 10.5792678907072766  1.7655084072480698  8.7982445254975712
  3.5279804788394831 -0.0022858383986803 10.6119226958380342
  8.7853397603914321  3.5733866478919341  5.2770040128756763
  3.5074146010701863 10.5977341296453815  7.0843481555532390
  1.7842762527483502 10.6134568490253898  5.2416613879921172
  1.7464306023597722  7.0867047951419888  1.7584122807923779
  3.5496299001193625  7.0618174371934348  0.0354685717901537
  7.0102573855476606 12.3995620641652913  1.7900524280748635
  1.7856497363177624 -0.0004957007510679  8.8605997400773759
  5.2798949677650029  0.0055423101993218  8.7922186506422868
  8.8046867396738460 10.5907776840421572 12.3528021988798287
 10.5879189446652600  0.0168639636915133  3.4942051384237081
  0.0121266701629379  1.7420473353842674  8.8528455645964641
 10.5701601217603951  5.2965876434314509  8.8254371707195975
  7.0686450316667697  7.0378482127679165  0.0116731963688918
  3.5512374330107059  5.3011924603256473 12.3451495994251239
 12.3267821771283632 10.6422998483053632  8.8196026832459005
  0.0205506247460660 12.3848864368882285  5.2838348963149118
  1.7748396003894320  8.8276979914499822  7.0699548686802398
  3.5409608430352995  5.2394612555291982  1.7815982866779638
  3.5089560343240627 12.4088283235258192  1.7694703703877206
 12.3298591841215828  7.0835553326867675  5.2576750176934040
  1.7496380239025278 10.5594842395909296  1.7740014448148387
 10.5718065803475731  3.4966688000961241  0.0072529088630509
  7.0512170662623284  0.0074924950335400  7.0412991960375759
 12.3432312716890173  8.8208077412562567  0.0046434085481904
  7.0825732692434871  5.3294939326901334 12.3520132540043637
 12.3654298216946827 -0.0371256743030484  8.8194959185806425
  7.0743135832860382  8.8376017813421388  5.3177865505163355
  1.7662647354284700 12.4012512623797022  3.5029645210862221
  5.3390470329574802  3.5577777134463520 12.3242677723435303
 12.3351593373904223  7.0580944574624587  8.8575268936254989
  5.2586819033463934 12.3566136802311561  7.0814107690838126
  0.0359253376948262  7.0605175531150151  7.0494231564101817
  0.0041727895824836  3.5203689214164737  7.0417517306904767
 12.3430816328502804  5.2917309018900944 10.6100981921681594
 12.3408159454338051 12.3278266599371644  7.0318194487814001
  0.0014061162118317  3.5238697860673143 10.6125270241130885
  8.7822225952478217 10.5847042908920184  5.2560530432608994
  5.3014909382583468  3.5618041845822210  5.2567303344873801
 10.6079948190564632  5.2739338275922503  5.2792233116552403
  5.2463746794076780 12.3751813284557119  3.5396789481302111
 10.6002023761295039  0.0631797416801223  0.0415427492835134
  5.3207829163932345  1.7364447720588856  0.0117454965757029
  1.6702380645162391  3.4446088745654944  1.7312510524780083
  7.0445112167711876  1.7358354359993706  1.7722941184874728
  5.2825998320762633 10.5692658285815480  5.2793799834117712
  7.0537448362010178 10.5560330523164350 10.5642892266569746
  1.7573940937284798  1.7550898380001563  7.0517431756114775
 10.5817679344543087 12.3161172985308429 12.3329495294608229
  1.7642123414236790  5.3090928108658870  7.0380652422982326
  3.5429494368494057 10.5585849859269647  3.5065303866059323
 12.3971082663585648  8.8296796701575815  7.0466058671194798
 -0.0444849230325626  0.0384203718232655  0.0299701604897437
  1.7670185970221040  8.8410750524737516 10.5700315524037336
  3.5595329927918913  7.0462757882446390  3.4476645698627908
 12.3662797130674189 -0.0026766038341228  5.3133945515335368
  3.5320324180803815  8.8054353760817303 12.3305517375128115
  8.8394693746274147  1.7813775160897853  3.5296653242153075
  8.8439922421316002 -0.0070640409890112  5.2844089386696487
  3.5296632048129655 10.5610572709938904  0.0298802961383867
  7.0754093083162175  6.9900015787182275  3.5062056350853128
 10.5829690437676014  5.2708118507905599  1.7486140874117033
  7.0791244340076869  3.5700428073886257 10.5907870760269756
  7.0746173428010861 10.5881766340131520  7.1054113045064824
 10.5555502740585680  8.8060429732803325  5.2786434099154800
 12.4000150878535482  5.3287155409580791  7.0619174766508959
 12.3877639089799878  3.5215426091881548  8.8703171437352371
 -0.0165815484951420  5.2565646098913188  5.2556327421974505
 10.5177007966801277  5.3126827298993149 12.3893503913834664
  7.0766980418276164  7.0426245409747121 10.5989236139239544
  1.7827067557092759  5.2572165584065873  3.4672332962014574
  1.7408996043788387  1.7748926697381717 -0.0205028484176204
 10.5490777130818927 10.5294398876836830  7.0663500913952921
  1.7782738003460585  3.5013764575302355 12.3221434810716417
  5.2891989023058041 10.5340776212982981 12.3561916644460386
  5.2798749681497679  7.0592454065653607 12.3503011773988938
  0.0310684177295234  8.8392422155669781  8.8663925883034533
  3.5503486746286339  3.5368890279949907  7.0397432617464197
 12.3153621531210486  7.0433454893722764 12.3283510407041046
  7.0488349727293231  8.8326870991930857  8.8193601986708217
  7.0615668029797538 12.3569184686635634 12.3358568832579856
 12.4016948370741780  3.3792198047349871  1.7382445982977373
  3.5271898755490145  8.8171795558200703  8.8991669258565214
  0.0041129708204070 12.3588099240999281  8.7982392534583607
  8.8126798603784167  1.7835321243047331  7.0502396061079020
 10.6444902152271919  3.5344201987435104  7.0468896594415567
  8.7870317811282135  3.4943858839906237 12.3646128836766636
  7.0673620376641502 12.3334536379672031  5.2550835694153912
  1.7286109924155360  0.0402176694242391 12.3264399605898625
 -0.0362166181506638  8.8021075412889864 12.3488130710390980
 10.5717348236409645  7.0374234187125317  3.5013544385914397
  5.3023324743308162  3.5105230648892292  1.7904314996512960
  3.5287275902606074 10.5901477546725111 10.5763822706728430
 10.5793842498601727  8.8116377799830268  1.7653413272026730
  3.5481139814056291  3.5012139146983170  3.5206498188376893
 12.3103172952924549  1.7562106191230702  3.5308444004583546
 12.3183195700763566 10.5890724771132572 12.3498078062285348
  5.2777870273276042  1.7702134285264115  7.0710447797664280
  1.7669581467517814  5.3021299059312161 10.6091302619169436
  8.8247704702943182 10.5682923437500857  8.8359277201752473
 10.6016255643379775  3.5214733762915427  3.5215016019435237
 10.5810516780609838  7.0445013784386479  0.0178492650618520
  8.7979118059673933  1.7617067681414702 10.5775528386584892
  7.0547977486494684  3.5257230794566867  3.5257770476583756
  3.5239852716848037  7.0554960894465060 10.6111908071780281
 12.3546873134907429  3.5098210868127047  5.2726013688088287
  8.7992220206219240  8.8330136933448085 10.6013413243561931
 12.3456030851340728 12.3608030315053377 10.5777993378905961
  3.5316857299185358  1.7708795680819709  5.3132383173041964
 12.3708688685451698  0.0582507275210395  1.7588216030749289
  3.5274409671036393  0.0287376446445191  7.0602819708052191
  8.8008855856720380  1.7422765111389686  0.0181340072747558
  7.0419155827622415  5.2841525339208211  5.2902692083626635
 -0.0105106723971917  3.4931579357367681 -0.0162007800972074
 10.5929818179051196  0.0103827118259782  7.0356467326724061
  7.0515808442175514  5.2755692869819359  8.8277629194068741
  3.5394092637665175  8.8125727029946628  1.7487905525430751
  8.8275921219377960  5.2855362849671028  7.0530282045625761
  1.7787337478605629  1.7602198787338965 10.6042812933248669
  7.0603179709149728 10.5894254817070994  3.5281982233238574
 10.5977942269653855  1.7619744541972120  1.7556267636746297
 12.3724182305977592  1.7686800896718742 -0.0216024734026876
 12.3381909062134980  8.8146708578971005  3.4889489578294297
  5.2764891223861721 10.5857370530982280  8.8275896189747112
  5.2956454668865112  8.8150859046993038 10.5886486398939788
 -0.0152729687626827  1.7795783768247908 12.3497374605905907
 -0.0087341017223505  8.8162462723435127  1.7669651322087687
  0.0329167491937050 10.5846528567318323  7.0232193456527572
 10.5766743200586095 10.5836525169157074 10.5985411009540975
  8.8104025663345737  7.0626430331465722 12.3717837246164954
  8.8306922681662403  8.7923907249518471  7.0638373041154088
  8.8274070994952183  5.3023914655980384 10.5949080997092828
 12.3229588466521385  3.5336833155350349 12.3488749633437163
  7.0420773840894526  1.7872196377271456  8.8146967298193264
 10.5740113607799877  7.0452762486093725  7.0545253773743575
  8.8269541754271810  5.2991395088998381  0.0175008787655467
  5.3027414698333475  5.2751567315643664  7.0641943104212981
  5.2902828911132875  5.2929071276556003  3.5104613204215358
  5.2920987418979655  5.3011429326853179 10.5779206689227721
  0.0007132757678805  1.7542282607110149  5.2743770568281203
  8.8538311163000234 10.5780397805640121  1.7688587443377373
  7.0568269920947504  0.0040083712098116  3.5395195346334676
  0.0054627049219619  0.0060843606615860 10.5893695042609917
 10.5861421587135744 10.5568891204261242  3.5085108048492843
  3.5441406230607018  3.5282568447621947 10.5984392615489984
  5.2898376490054515  7.0532852969376654  1.7495558218208824
  5.3003155215190407  3.5426344367944149  8.8209153048297395
  0.0198106834259536  0.0199782649713330  7.0494189275448411
  8.8344250711561454  7.0395634352194056  1.7677572831435615
  1.7588206015762413  0.0161141310451516  5.2905134868655939
  7.0552019414160787  0.0015335441730538  0.0065504066389508
  1.7705596328581799  7.0581715021188254  8.8505784283678022
  5.3064460679875873  8.8075455373721105  0.0232786670058799
  7.0411954970427351  1.7623115291071587 12.3666179968090990
  5.2972896332663435 -0.0062143911468824  1.7721783951681458
  3.5141356308637643  0.0134053180865979  3.5187796638266922
 10.5739292379202166 10.5941986738742067 -0.0069364418439191
  0.0109644758035315  7.0456949535947890 10.5924072503999138
  0.0076761375832951 12.3916832651380968  1.7768459136972949
  8.8191108409312822  5.2735181239924556  3.5233295688003463
 -0.0057863595823146  7.0461145953705255  3.5138875552687714
  3.5133863877062295 12.3571973002461846  8.8417002705554140
  1.7431964214084694 10.6014049402352359  8.8256198251638800
  5.3092217554182142 -0.0015621633899829 12.3488915410205635
  7.0420040589467368  3.5250108567088132  7.0625633061915476
  3.5190178163499648  5.2776478303733230  8.8419712424415664
  5.2803009972443951  0.0169692184959177  5.3027659185413212
 10.6002688359360242  1.7818803373771483  5.2907815282969670
  7.0695584515767269  8.8100037443063126  1.7636913144271165
  1.7617078777975081  1.7627683913096501  3.5234230494865044
  8.8287543980278738  3.5403394307421996  8.8225111967501633
 10.5837857876088943  1.7637975578433776 12.3603908700297449
 -0.0017859217935396  5.2819284971952252 12.3673929477256799
 12.3377630666484990 -0.0062423942173953 12.3576824097035018
  3.5335667173420084  1.7827282828612643  8.8386191984646221
  5.3066904014898553  5.2604066416607544  0.0220391020561729
  1.7722720695205396 10.5883093702958710 12.3662488209993668
  5.2716090855164142  8.8213545092036263  7.0737669846987874
  1.7509372806286816 12.3734435542865420  0.0118756508043336
  8.8265022515458842  0.0049201528191113 12.3657144649795594
  5.2998747926397076  1.7546739415761983  3.5203850841572133
 10.5804231511486915  8.8294500156286695 12.3607195477936163
  3.5325488342510782  8.8001512708634859  5.2791131386727654
 12.3724519441618579  1.7510579061203460  7.0406944188833371
  1.7472837391325959  8.8177689518642524 -0.0116595335169605
  8.8390110226396921 12.3496591382845562  7.0791436226841169
  3.5309796954393620  0.0230876918469764 -0.0282973342275372
 10.5596601029750037  3.5207061661766770 10.6003021087744305
 -0.0228613886435694 12.3711443486846928 12.3706249387439478
  7.0404715727250951  0.0237160619261237 10.5802280413725658
 10.5775275185758719 12.3274139687055264  5.2702815932362848
  5.2890456546259719  7.0452600226123918  8.8379935389815518
  1.7639610735252806  8.8110808784128967  3.5112087857590475
  3.5382553970354196  1.7869916443752549 12.3461170670254567
  5.2880183053573804 10.5866199093315814  1.7555932483572525
  7.0553758248579532  5.2774203370851058  1.7739105216163715
 12.3542036800912705 10.5693745391200178  5.2745027145546182
 10.5746949591757211  0.0052124502142638 10.5894758870913925
 12.3435447311706703  1.7497524180095760 10.6125760710989532
 12.3500645083657279 10.5906386363445311  1.7502170705611968
 12.3471740005438999  5.2786999496776410 -0.0021624686022658
  1.7698787405974701  7.0451057033606732  5.2450740847676380
  0.0375454251170181  5.3085774075662799  8.8433093736131774
  8.8010136439576225  0.0228339132638613  8.8089282496786900
 -0.0046596954670529  5.2511600409907810  1.7605135393082110
 -0.0024912774194184 10.5873993633080765  3.5136329985461723
  3.5190104378952611  7.0439921029068415  7.0665276867965652
  8.8285910811071222 12.3461254647719976  3.4861119354785992
 12.3329861685569817  8.8358459008727745 10.5983016714175218
  8.8265444784393097 12.3594745148070366  0.0158311735505057
 -0.0058281679217790  7.0472832584148923 -0.0046903406449455
  7.0471266946478197  1.7680788942884491  5.2808125830051216
 10.5752901185134682  8.8150959988879016  8.8286743875804916
  3.5426585800391979 12.3442857094912668 12.3655909878277441
 10.5780588369350550 12.3613190593687783  8.8246593344028845
  7.0500196899467138  7.0552970448647594  7.0581913395884852
  1.7504860640719846  5.2546198991727362  0.0258301551052545
  7.0559485771773964  8.8089835368244991 12.3587580086460633
  3.5126391642527151 12.4075721512437109  5.2914907676850227
  7.0645790001901538 12.3454604650765347  8.8192699854806609
  8.8180013715070142 12.3538114144015498 10.5739769376111674
 -0.0064112738065103  3.4506874283569107  3.5096553457430004
  5.3227416362297122  8.8070071985512488  3.4875111782348482
  1.7753476517035940 12.3791855053757409  7.0527446718171207
 12.3459885853745241  7.0464261678187130  1.7679160335248283
  1.7718205851787059  7.0448053958395960 12.3521790054922498
  5.3022728680885827  7.0441689641045118  5.2901341551792651
  8.8124385522755215  0.0075748811852054  1.7641712201628053
  3.5253460667305876  1.7710474173732329  1.7623497149828251
  5.2965610087989328 12.3712355183869516 -0.0007719749762547
  0.0163460548065346  8.8210720316511768  5.2574310191782416
 10.5460714499209143  7.0735978255528913 10.6021078413149805
  3.5452418789413511  3.5194853163315587  0.0033790712148499
 12.3541133098486711 12.3642345102125226  3.5195647978950295
  3.5259734869776596  5.2967056261435870  5.2486132123074531
  8.8055501895909281  8.8069350979375578  3.4971401379988465
  1.7240067264329131  0.0758210753674406  1.7285466178080673
  8.8278781774942079  8.8159458121758352  0.0175930275909027
  8.8258780983482179  7.0305207768099276  5.3010256746132001
  5.2847865081396996 12.3331731412140826 10.5682045516294103
  7.0611538397596219 10.6033937984160023 -0.0026911963689608
  1.7678674683530815 12.3400036504285300 10.6158094385551074
  1.7972554277936164  3.5124858424450736  5.2674968666888535
  8.8321646995066292  3.5165821750465756  1.7684749137072984
 -0.0239696544937351 10.6033340696969649 10.6099570084462052
 12.3288938871643072 12.3532457492014771  0.0069800499708413
  7.0679418253366508  3.5233391779940586  0.0077165062303845
  1.7720720320908054  3.5425641230010321  8.8389320118803543
 -0.0145242078889158  0.0522279632065142  3.4997759232723293
  5.2988368257561707  1.7704997376899791 10.5964413369693222
  8.8000454425041195  7.0499783001526488  8.8075559252996225
 -0.0065044548316985 10.5951837053720581 -0.0001654890059284
 10.6023648528521726 12.3681993715133220  1.7481298295734569
 12.3633920282211385  5.2502143239007086  3.5057013119040206
